# Solution for model Model5
# Objective value = 139
y[0,0,2] 0
y[0,0,3] 1
y[0,0,4] 0
y[0,1,1] 0
y[0,1,4] 1
y[0,1,6] 0
y[0,2,0] 0
y[0,2,1] 1
y[0,2,2] 0
y[1,0,2] 0
y[1,0,4] 0
y[1,0,6] 1
y[1,1,1] 0
y[1,1,4] 0
y[1,1,5] 1
y[1,2,0] 1
y[1,2,2] 0
y[1,2,5] 0
y[2,0,2] 0
y[2,0,5] 1
y[2,0,6] 0
y[2,1,0] 1
y[2,1,3] 0
y[2,1,4] 0
y[2,2,2] 1
y[2,2,3] 0
y[2,2,6] 0
y[3,0,1] 0
y[3,0,4] 0
y[3,0,5] 1
y[3,1,3] 0
y[3,1,4] 1
y[3,1,5] 0
y[3,2,2] 1
y[3,2,4] 0
y[3,2,6] 0
y[4,0,0] 0
y[4,0,4] 0
y[4,0,6] 1
y[4,1,0] 1
y[4,1,3] 0
y[4,1,5] 0
y[4,2,0] 0
y[4,2,5] 1
y[4,2,6] 0
y[5,0,2] 0
y[5,0,3] 0
y[5,0,4] 1
y[5,1,1] 1
y[5,1,2] 0
y[5,1,5] 0
y[5,2,0] 0
y[5,2,1] 1
y[5,2,5] 0
y[6,0,1] 0
y[6,0,4] 1
y[6,0,5] 0
y[6,1,1] 0
y[6,1,4] 0
y[6,1,6] 1
y[6,2,0] 1
y[6,2,3] 0
y[6,2,5] 0
y[7,0,2] 0
y[7,0,3] 1
y[7,0,4] 0
y[7,1,0] 0
y[7,1,2] 1
y[7,1,4] 0
y[7,2,0] 0
y[7,2,2] 1
y[7,2,5] 0
x[0,0,0,0] 0
x[0,0,0,1] 0
x[0,0,0,2] 0
x[0,0,1,0] 1
x[0,0,1,1] 0
x[0,0,1,2] 0
x[0,0,2,0] 0
x[0,0,2,1] 0
x[0,0,2,2] 0
x[0,0,3,0] 0
x[0,0,3,1] 0
x[0,0,3,2] 1
x[0,0,4,0] 0
x[0,0,4,1] 0
x[0,0,4,2] 0
x[0,0,5,0] 0
x[0,0,5,1] 0
x[0,0,5,2] 0
x[0,0,6,0] 0
x[0,0,6,1] 0
x[0,0,6,2] 0
x[0,0,7,0] 0
x[0,0,7,1] 1
x[0,0,7,2] 1
x[0,1,0,0] 1
x[0,1,0,1] 0
x[0,1,0,2] 0
x[0,1,1,0] 0
x[0,1,1,1] 0
x[0,1,1,2] 0
x[0,1,2,0] 0
x[0,1,2,1] 0
x[0,1,2,2] 0
x[0,1,3,0] 0
x[0,1,3,1] 0
x[0,1,3,2] 0
x[0,1,4,0] 1
x[0,1,4,1] 0
x[0,1,4,2] 0
x[0,1,5,0] 0
x[0,1,5,1] 0
x[0,1,5,2] 0
x[0,1,6,0] 0
x[0,1,6,1] 0
x[0,1,6,2] 0
x[0,1,7,0] 0
x[0,1,7,1] 0
x[0,1,7,2] 0
x[0,2,0,0] 1
x[0,2,0,1] 1
x[0,2,0,2] 0
x[0,2,1,0] 0
x[0,2,1,1] 0
x[0,2,1,2] 0
x[0,2,2,0] 0
x[0,2,2,1] 0
x[0,2,2,2] 0
x[0,2,3,0] 0
x[0,2,3,1] 0
x[0,2,3,2] 1
x[0,2,4,0] 0
x[0,2,4,1] 0
x[0,2,4,2] 0
x[0,2,5,0] 0
x[0,2,5,1] 0
x[0,2,5,2] 0
x[0,2,6,0] 0
x[0,2,6,1] 1
x[0,2,6,2] 0
x[0,2,7,0] 0
x[0,2,7,1] 0
x[0,2,7,2] 1
x[1,0,0,0] 0
x[1,0,0,1] 0
x[1,0,0,2] 0
x[1,0,1,0] 0
x[1,0,1,1] 0
x[1,0,1,2] 1
x[1,0,2,0] 0
x[1,0,2,1] 0
x[1,0,2,2] 0
x[1,0,3,0] 0
x[1,0,3,1] 1
x[1,0,3,2] 1
x[1,0,4,0] 1
x[1,0,4,1] 0
x[1,0,4,2] 1
x[1,0,5,0] 0
x[1,0,5,1] 0
x[1,0,5,2] 0
x[1,0,6,0] 0
x[1,0,6,1] 1
x[1,0,6,2] 0
x[1,0,7,0] 0
x[1,0,7,1] 0
x[1,0,7,2] 0
x[1,1,0,0] 0
x[1,1,0,1] 0
x[1,1,0,2] 0
x[1,1,1,0] 1
x[1,1,1,1] 0
x[1,1,1,2] 1
x[1,1,2,0] 0
x[1,1,2,1] 0
x[1,1,2,2] 0
x[1,1,3,0] 1
x[1,1,3,1] 1
x[1,1,3,2] 0
x[1,1,4,0] 0
x[1,1,4,1] 1
x[1,1,4,2] 1
x[1,1,5,0] 0
x[1,1,5,1] 0
x[1,1,5,2] 0
x[1,1,6,0] 1
x[1,1,6,1] 0
x[1,1,6,2] 0
x[1,1,7,0] 0
x[1,1,7,1] 0
x[1,1,7,2] 0
x[1,2,0,0] 0
x[1,2,0,1] 0
x[1,2,0,2] 0
x[1,2,1,0] 0
x[1,2,1,1] 0
x[1,2,1,2] 0
x[1,2,2,0] 0
x[1,2,2,1] 0
x[1,2,2,2] 0
x[1,2,3,0] 0
x[1,2,3,1] 0
x[1,2,3,2] 1
x[1,2,4,0] 0
x[1,2,4,1] 1
x[1,2,4,2] 1
x[1,2,5,0] 0
x[1,2,5,1] 0
x[1,2,5,2] 1
x[1,2,6,0] 0
x[1,2,6,1] 0
x[1,2,6,2] 0
x[1,2,7,0] 0
x[1,2,7,1] 1
x[1,2,7,2] 1
x[2,0,0,0] 0
x[2,0,0,1] 0
x[2,0,0,2] 0
x[2,0,1,0] 0
x[2,0,1,1] 0
x[2,0,1,2] 0
x[2,0,2,0] 0
x[2,0,2,1] 0
x[2,0,2,2] 0
x[2,0,3,0] 1
x[2,0,3,1] 0
x[2,0,3,2] 1
x[2,0,4,0] 1
x[2,0,4,1] 1
x[2,0,4,2] 1
x[2,0,5,0] 0
x[2,0,5,1] 0
x[2,0,5,2] 0
x[2,0,6,0] 0
x[2,0,6,1] 1
x[2,0,6,2] 0
x[2,0,7,0] 0
x[2,0,7,1] 0
x[2,0,7,2] 1
x[2,1,0,0] 0
x[2,1,0,1] 0
x[2,1,0,2] 0
x[2,1,1,0] 0
x[2,1,1,1] 0
x[2,1,1,2] 0
x[2,1,2,0] 0
x[2,1,2,1] 0
x[2,1,2,2] 1
x[2,1,3,0] 0
x[2,1,3,1] 0
x[2,1,3,2] 0
x[2,1,4,0] 1
x[2,1,4,1] 1
x[2,1,4,2] 0
x[2,1,5,0] 0
x[2,1,5,1] 0
x[2,1,5,2] 1
x[2,1,6,0] 0
x[2,1,6,1] 0
x[2,1,6,2] 1
x[2,1,7,0] 0
x[2,1,7,1] 0
x[2,1,7,2] 1
x[2,2,0,0] 0
x[2,2,0,1] 0
x[2,2,0,2] 0
x[2,2,1,0] 0
x[2,2,1,1] 0
x[2,2,1,2] 0
x[2,2,2,0] 1
x[2,2,2,1] 0
x[2,2,2,2] 0
x[2,2,3,0] 0
x[2,2,3,1] 0
x[2,2,3,2] 1
x[2,2,4,0] 0
x[2,2,4,1] 0
x[2,2,4,2] 0
x[2,2,5,0] 0
x[2,2,5,1] 0
x[2,2,5,2] 0
x[2,2,6,0] 0
x[2,2,6,1] 0
x[2,2,6,2] 0
x[2,2,7,0] 1
x[2,2,7,1] 1
x[2,2,7,2] 1
x[3,0,0,0] 0
x[3,0,0,1] 0
x[3,0,0,2] 0
x[3,0,1,0] 0
x[3,0,1,1] 0
x[3,0,1,2] 0
x[3,0,2,0] 0
x[3,0,2,1] 0
x[3,0,2,2] 0
x[3,0,3,0] 0
x[3,0,3,1] 0
x[3,0,3,2] 0
x[3,0,4,0] 0
x[3,0,4,1] 0
x[3,0,4,2] 1
x[3,0,5,0] 0
x[3,0,5,1] 0
x[3,0,5,2] 0
x[3,0,6,0] 0
x[3,0,6,1] 0
x[3,0,6,2] 0
x[3,0,7,0] 0
x[3,0,7,1] 0
x[3,0,7,2] 0
x[3,1,0,0] 0
x[3,1,0,1] 0
x[3,1,0,2] 0
x[3,1,1,0] 0
x[3,1,1,1] 0
x[3,1,1,2] 0
x[3,1,2,0] 0
x[3,1,2,1] 0
x[3,1,2,2] 0
x[3,1,3,0] 1
x[3,1,3,1] 0
x[3,1,3,2] 0
x[3,1,4,0] 0
x[3,1,4,1] 0
x[3,1,4,2] 0
x[3,1,5,0] 0
x[3,1,5,1] 0
x[3,1,5,2] 0
x[3,1,6,0] 0
x[3,1,6,1] 0
x[3,1,6,2] 0
x[3,1,7,0] 0
x[3,1,7,1] 0
x[3,1,7,2] 0
x[3,2,0,0] 0
x[3,2,0,1] 0
x[3,2,0,2] 0
x[3,2,1,0] 0
x[3,2,1,1] 0
x[3,2,1,2] 0
x[3,2,2,0] 0
x[3,2,2,1] 0
x[3,2,2,2] 0
x[3,2,3,0] 1
x[3,2,3,1] 1
x[3,2,3,2] 0
x[3,2,4,0] 0
x[3,2,4,1] 0
x[3,2,4,2] 0
x[3,2,5,0] 0
x[3,2,5,1] 0
x[3,2,5,2] 0
x[3,2,6,0] 0
x[3,2,6,1] 0
x[3,2,6,2] 0
x[3,2,7,0] 0
x[3,2,7,1] 0
x[3,2,7,2] 0
x[4,0,0,0] 0
x[4,0,0,1] 0
x[4,0,0,2] 0
x[4,0,1,0] 0
x[4,0,1,1] 0
x[4,0,1,2] 0
x[4,0,2,0] 0
x[4,0,2,1] 0
x[4,0,2,2] 0
x[4,0,3,0] 0
x[4,0,3,1] 0
x[4,0,3,2] 0
x[4,0,4,0] 0
x[4,0,4,1] 0
x[4,0,4,2] 1
x[4,0,5,0] 0
x[4,0,5,1] 0
x[4,0,5,2] 1
x[4,0,6,0] 0
x[4,0,6,1] 0
x[4,0,6,2] 1
x[4,0,7,0] 0
x[4,0,7,1] 0
x[4,0,7,2] 0
x[4,1,0,0] 0
x[4,1,0,1] 0
x[4,1,0,2] 0
x[4,1,1,0] 0
x[4,1,1,1] 0
x[4,1,1,2] 0
x[4,1,2,0] 0
x[4,1,2,1] 0
x[4,1,2,2] 0
x[4,1,3,0] 0
x[4,1,3,1] 0
x[4,1,3,2] 0
x[4,1,4,0] 1
x[4,1,4,1] 0
x[4,1,4,2] 1
x[4,1,5,0] 0
x[4,1,5,1] 0
x[4,1,5,2] 0
x[4,1,6,0] 0
x[4,1,6,1] 0
x[4,1,6,2] 0
x[4,1,7,0] 0
x[4,1,7,1] 0
x[4,1,7,2] 1
x[4,2,0,0] 0
x[4,2,0,1] 0
x[4,2,0,2] 0
x[4,2,1,0] 0
x[4,2,1,1] 0
x[4,2,1,2] 0
x[4,2,2,0] 0
x[4,2,2,1] 0
x[4,2,2,2] 0
x[4,2,3,0] 0
x[4,2,3,1] 0
x[4,2,3,2] 0
x[4,2,4,0] 0
x[4,2,4,1] 0
x[4,2,4,2] 0
x[4,2,5,0] 0
x[4,2,5,1] 0
x[4,2,5,2] 0
x[4,2,6,0] 0
x[4,2,6,1] 0
x[4,2,6,2] 0
x[4,2,7,0] 0
x[4,2,7,1] 0
x[4,2,7,2] 0
x[5,0,0,0] 0
x[5,0,0,1] 0
x[5,0,0,2] 0
x[5,0,1,0] 0
x[5,0,1,1] 0
x[5,0,1,2] 0
x[5,0,2,0] 0
x[5,0,2,1] 0
x[5,0,2,2] 0
x[5,0,3,0] 0
x[5,0,3,1] 0
x[5,0,3,2] 0
x[5,0,4,0] 0
x[5,0,4,1] 0
x[5,0,4,2] 0
x[5,0,5,0] 0
x[5,0,5,1] 0
x[5,0,5,2] 0
x[5,0,6,0] 1
x[5,0,6,1] 0
x[5,0,6,2] 0
x[5,0,7,0] 0
x[5,0,7,1] 0
x[5,0,7,2] 0
x[5,1,0,0] 0
x[5,1,0,1] 0
x[5,1,0,2] 0
x[5,1,1,0] 0
x[5,1,1,1] 0
x[5,1,1,2] 0
x[5,1,2,0] 0
x[5,1,2,1] 0
x[5,1,2,2] 0
x[5,1,3,0] 0
x[5,1,3,1] 0
x[5,1,3,2] 0
x[5,1,4,0] 0
x[5,1,4,1] 0
x[5,1,4,2] 0
x[5,1,5,0] 1
x[5,1,5,1] 0
x[5,1,5,2] 1
x[5,1,6,0] 1
x[5,1,6,1] 1
x[5,1,6,2] 0
x[5,1,7,0] 0
x[5,1,7,1] 0
x[5,1,7,2] 0
x[5,2,0,0] 0
x[5,2,0,1] 0
x[5,2,0,2] 0
x[5,2,1,0] 0
x[5,2,1,1] 0
x[5,2,1,2] 0
x[5,2,2,0] 0
x[5,2,2,1] 0
x[5,2,2,2] 0
x[5,2,3,0] 0
x[5,2,3,1] 0
x[5,2,3,2] 0
x[5,2,4,0] 0
x[5,2,4,1] 0
x[5,2,4,2] 0
x[5,2,5,0] 0
x[5,2,5,1] 0
x[5,2,5,2] 0
x[5,2,6,0] 1
x[5,2,6,1] 1
x[5,2,6,2] 1
x[5,2,7,0] 0
x[5,2,7,1] 0
x[5,2,7,2] 0
x[6,0,0,0] 0
x[6,0,0,1] 0
x[6,0,0,2] 0
x[6,0,1,0] 0
x[6,0,1,1] 0
x[6,0,1,2] 0
x[6,0,2,0] 0
x[6,0,2,1] 0
x[6,0,2,2] 0
x[6,0,3,0] 0
x[6,0,3,1] 0
x[6,0,3,2] 0
x[6,0,4,0] 0
x[6,0,4,1] 0
x[6,0,4,2] 0
x[6,0,5,0] 0
x[6,0,5,1] 0
x[6,0,5,2] 0
x[6,0,6,0] 0
x[6,0,6,1] 0
x[6,0,6,2] 0
x[6,0,7,0] 0
x[6,0,7,1] 0
x[6,0,7,2] 0
x[6,1,0,0] 0
x[6,1,0,1] 0
x[6,1,0,2] 0
x[6,1,1,0] 0
x[6,1,1,1] 0
x[6,1,1,2] 0
x[6,1,2,0] 0
x[6,1,2,1] 0
x[6,1,2,2] 0
x[6,1,3,0] 0
x[6,1,3,1] 0
x[6,1,3,2] 0
x[6,1,4,0] 0
x[6,1,4,1] 0
x[6,1,4,2] 0
x[6,1,5,0] 0
x[6,1,5,1] 0
x[6,1,5,2] 0
x[6,1,6,0] 1
x[6,1,6,1] 0
x[6,1,6,2] 0
x[6,1,7,0] 0
x[6,1,7,1] 0
x[6,1,7,2] 0
x[6,2,0,0] 0
x[6,2,0,1] 0
x[6,2,0,2] 0
x[6,2,1,0] 0
x[6,2,1,1] 0
x[6,2,1,2] 0
x[6,2,2,0] 0
x[6,2,2,1] 0
x[6,2,2,2] 0
x[6,2,3,0] 0
x[6,2,3,1] 0
x[6,2,3,2] 0
x[6,2,4,0] 0
x[6,2,4,1] 0
x[6,2,4,2] 0
x[6,2,5,0] 0
x[6,2,5,1] 0
x[6,2,5,2] 0
x[6,2,6,0] 1
x[6,2,6,1] 0
x[6,2,6,2] 0
x[6,2,7,0] 0
x[6,2,7,1] 0
x[6,2,7,2] 0
x[7,0,0,0] 0
x[7,0,0,1] 0
x[7,0,0,2] 0
x[7,0,1,0] 0
x[7,0,1,1] 0
x[7,0,1,2] 0
x[7,0,2,0] 0
x[7,0,2,1] 0
x[7,0,2,2] 0
x[7,0,3,0] 0
x[7,0,3,1] 0
x[7,0,3,2] 0
x[7,0,4,0] 0
x[7,0,4,1] 0
x[7,0,4,2] 0
x[7,0,5,0] 0
x[7,0,5,1] 0
x[7,0,5,2] 0
x[7,0,6,0] 0
x[7,0,6,1] 0
x[7,0,6,2] 0
x[7,0,7,0] 0
x[7,0,7,1] 1
x[7,0,7,2] 0
x[7,1,0,0] 0
x[7,1,0,1] 0
x[7,1,0,2] 0
x[7,1,1,0] 0
x[7,1,1,1] 0
x[7,1,1,2] 0
x[7,1,2,0] 0
x[7,1,2,1] 0
x[7,1,2,2] 0
x[7,1,3,0] 0
x[7,1,3,1] 0
x[7,1,3,2] 0
x[7,1,4,0] 0
x[7,1,4,1] 0
x[7,1,4,2] 0
x[7,1,5,0] 0
x[7,1,5,1] 0
x[7,1,5,2] 0
x[7,1,6,0] 0
x[7,1,6,1] 0
x[7,1,6,2] 0
x[7,1,7,0] 0
x[7,1,7,1] 0
x[7,1,7,2] 1
x[7,2,0,0] 0
x[7,2,0,1] 0
x[7,2,0,2] 0
x[7,2,1,0] 0
x[7,2,1,1] 0
x[7,2,1,2] 0
x[7,2,2,0] 0
x[7,2,2,1] 0
x[7,2,2,2] 0
x[7,2,3,0] 0
x[7,2,3,1] 0
x[7,2,3,2] 0
x[7,2,4,0] 0
x[7,2,4,1] 0
x[7,2,4,2] 0
x[7,2,5,0] 0
x[7,2,5,1] 0
x[7,2,5,2] 0
x[7,2,6,0] 0
x[7,2,6,1] 0
x[7,2,6,2] 0
x[7,2,7,0] 1
x[7,2,7,1] 0
x[7,2,7,2] 0
s[0,0,2] 0
s[0,0,3] 3
s[0,0,4] 0
s[0,1,1] 0
s[0,1,4] 1
s[0,1,6] 0
s[0,2,0] 0
s[0,2,1] 0
s[0,2,2] 0
s[1,0,2] 0
s[1,0,4] 0
s[1,0,6] 18.9999999999999
s[1,1,1] 0
s[1,1,4] 0
s[1,1,5] 13.9999999999999
s[1,2,0] 7
s[1,2,2] 0
s[1,2,5] 0
s[2,0,2] 0
s[2,0,5] 26.9999999999999
s[2,0,6] 0
s[2,1,0] 23.9999999999999
s[2,1,3] 0
s[2,1,4] 0
s[2,2,2] 23.9999999999999
s[2,2,3] 0
s[2,2,6] 0
s[3,0,1] 0
s[3,0,4] 0
s[3,0,5] 6.9999999999999005e+00
s[3,1,3] 0
s[3,1,4] 4.9999999999999432e+00
s[3,1,5] 0
s[3,2,2] 1
s[3,2,4] 0
s[3,2,6] 0
s[4,0,0] 0
s[4,0,4] 0
s[4,0,6] 2.9999999999999005e+00
s[4,1,0] 0
s[4,1,3] 0
s[4,1,5] 0
s[4,2,0] 0
s[4,2,5] 0
s[4,2,6] 0
s[5,0,2] 0
s[5,0,3] 0
s[5,0,4] 2.3000000000000014e+01
s[5,1,1] 2.0000000000000014e+01
s[5,1,2] 0
s[5,1,5] 0
s[5,2,0] 0
s[5,2,1] 11
s[5,2,5] 0
s[6,0,1] 0
s[6,0,4] 1.3999999999999929e+01
s[6,0,5] 0
s[6,1,1] 0
s[6,1,4] 0
s[6,1,6] 9.9999999999999
s[6,2,0] 1.0999999999999943e+01
s[6,2,3] 0
s[6,2,5] 0
s[7,0,2] 0
s[7,0,3] 1.7999999999999957e+01
s[7,0,4] 0
s[7,1,0] 0
s[7,1,2] 1.5999999999999957e+01
s[7,1,4] 0
s[7,2,0] 0
s[7,2,2] 7.9999999999999716e+00
s[7,2,5] 0
Z_FO 139
